c *********************************
c * Circuit generated by BenCGen
c *
c * CarrySelectAdder_27_27_27_InOut_G4T
c *
c * Ports with 1 gate(s): 44
c * Ports with 2 gate(s): 350
c * Ports with 3 gate(s): 2
c * Ports with 4 gate(s): 10
c * Total gates: 406
c *********************************
p cnf 460 1296
1 84 0
-1 -84 0
1 -83 0
84 -83 0
-1 -84 83 0
83 101 0
-83 -101 0
1 28 -87 0
-1 28 87 0
1 -28 87 0
-1 -28 -87 0
87 83 -55 0
-87 83 55 0
87 -83 55 0
-87 -83 -55 0
83 -88 0
87 -88 0
-83 -87 88 0
28 -89 0
1 -89 0
-28 -1 89 0
-88 86 0
-89 86 0
88 89 -86 0
2 29 -91 0
-2 29 91 0
2 -29 91 0
-2 -29 -91 0
91 86 -56 0
-91 86 56 0
91 -86 56 0
-91 -86 -56 0
86 -92 0
91 -92 0
-86 -91 92 0
29 -93 0
2 -93 0
-29 -2 93 0
-92 90 0
-93 90 0
92 93 -90 0
3 30 -95 0
-3 30 95 0
3 -30 95 0
-3 -30 -95 0
95 90 -57 0
-95 90 57 0
95 -90 57 0
-95 -90 -57 0
90 -96 0
95 -96 0
-90 -95 96 0
30 -97 0
3 -97 0
-30 -3 97 0
-96 94 0
-97 94 0
96 97 -94 0
4 31 -98 0
-4 31 98 0
4 -31 98 0
-4 -31 -98 0
98 94 -58 0
-98 94 58 0
98 -94 58 0
-98 -94 -58 0
94 -99 0
98 -99 0
-94 -98 99 0
31 -100 0
4 -100 0
-31 -4 100 0
-99 85 0
-100 85 0
99 100 -85 0
5 32 -112 0
-5 32 112 0
5 -32 112 0
-5 -32 -112 0
112 83 -102 0
-112 83 102 0
112 -83 102 0
-112 -83 -102 0
83 -113 0
112 -113 0
-83 -112 113 0
32 -114 0
5 -114 0
-32 -5 114 0
-113 111 0
-114 111 0
113 114 -111 0
6 33 -116 0
-6 33 116 0
6 -33 116 0
-6 -33 -116 0
116 111 -103 0
-116 111 103 0
116 -111 103 0
-116 -111 -103 0
111 -117 0
116 -117 0
-111 -116 117 0
33 -118 0
6 -118 0
-33 -6 118 0
-117 115 0
-118 115 0
117 118 -115 0
7 34 -120 0
-7 34 120 0
7 -34 120 0
-7 -34 -120 0
120 115 -104 0
-120 115 104 0
120 -115 104 0
-120 -115 -104 0
115 -121 0
120 -121 0
-115 -120 121 0
34 -122 0
7 -122 0
-34 -7 122 0
-121 119 0
-122 119 0
121 122 -119 0
8 35 -123 0
-8 35 123 0
8 -35 123 0
-8 -35 -123 0
123 119 -105 0
-123 119 105 0
123 -119 105 0
-123 -119 -105 0
119 -124 0
123 -124 0
-119 -123 124 0
35 -125 0
8 -125 0
-35 -8 125 0
-124 110 0
-125 110 0
124 125 -110 0
112 -126 0
116 -126 0
120 -126 0
123 -126 0
-112 -116 -120 -123 126 0
125 -127 0
-125 127 0
5 32 -130 0
-5 32 130 0
5 -32 130 0
-5 -32 -130 0
130 101 -106 0
-130 101 106 0
130 -101 106 0
-130 -101 -106 0
101 -131 0
130 -131 0
-101 -130 131 0
32 -132 0
5 -132 0
-32 -5 132 0
-131 129 0
-132 129 0
131 132 -129 0
6 33 -134 0
-6 33 134 0
6 -33 134 0
-6 -33 -134 0
134 129 -107 0
-134 129 107 0
134 -129 107 0
-134 -129 -107 0
129 -135 0
134 -135 0
-129 -134 135 0
33 -136 0
6 -136 0
-33 -6 136 0
-135 133 0
-136 133 0
135 136 -133 0
7 34 -138 0
-7 34 138 0
7 -34 138 0
-7 -34 -138 0
138 133 -108 0
-138 133 108 0
138 -133 108 0
-138 -133 -108 0
133 -139 0
138 -139 0
-133 -138 139 0
34 -140 0
7 -140 0
-34 -7 140 0
-139 137 0
-140 137 0
139 140 -137 0
8 35 -141 0
-8 35 141 0
8 -35 141 0
-8 -35 -141 0
141 137 -109 0
-141 137 109 0
141 -137 109 0
-141 -137 -109 0
137 -142 0
141 -142 0
-137 -141 142 0
35 -143 0
8 -143 0
-35 -8 143 0
-142 128 0
-143 128 0
142 143 -128 0
130 -144 0
134 -144 0
138 -144 0
141 -144 0
-130 -134 -138 -141 144 0
143 -145 0
-143 145 0
9 36 -174 0
-9 36 174 0
9 -36 174 0
-9 -36 -174 0
174 83 -164 0
-174 83 164 0
174 -83 164 0
-174 -83 -164 0
83 -175 0
174 -175 0
-83 -174 175 0
36 -176 0
9 -176 0
-36 -9 176 0
-175 173 0
-176 173 0
175 176 -173 0
10 37 -178 0
-10 37 178 0
10 -37 178 0
-10 -37 -178 0
178 173 -165 0
-178 173 165 0
178 -173 165 0
-178 -173 -165 0
173 -179 0
178 -179 0
-173 -178 179 0
37 -180 0
10 -180 0
-37 -10 180 0
-179 177 0
-180 177 0
179 180 -177 0
11 38 -182 0
-11 38 182 0
11 -38 182 0
-11 -38 -182 0
182 177 -166 0
-182 177 166 0
182 -177 166 0
-182 -177 -166 0
177 -183 0
182 -183 0
-177 -182 183 0
38 -184 0
11 -184 0
-38 -11 184 0
-183 181 0
-184 181 0
183 184 -181 0
12 39 -185 0
-12 39 185 0
12 -39 185 0
-12 -39 -185 0
185 181 -167 0
-185 181 167 0
185 -181 167 0
-185 -181 -167 0
181 -186 0
185 -186 0
-181 -185 186 0
39 -187 0
12 -187 0
-39 -12 187 0
-186 172 0
-187 172 0
186 187 -172 0
174 -188 0
178 -188 0
182 -188 0
185 -188 0
-174 -178 -182 -185 188 0
187 -189 0
-187 189 0
9 36 -192 0
-9 36 192 0
9 -36 192 0
-9 -36 -192 0
192 101 -168 0
-192 101 168 0
192 -101 168 0
-192 -101 -168 0
101 -193 0
192 -193 0
-101 -192 193 0
36 -194 0
9 -194 0
-36 -9 194 0
-193 191 0
-194 191 0
193 194 -191 0
10 37 -196 0
-10 37 196 0
10 -37 196 0
-10 -37 -196 0
196 191 -169 0
-196 191 169 0
196 -191 169 0
-196 -191 -169 0
191 -197 0
196 -197 0
-191 -196 197 0
37 -198 0
10 -198 0
-37 -10 198 0
-197 195 0
-198 195 0
197 198 -195 0
11 38 -200 0
-11 38 200 0
11 -38 200 0
-11 -38 -200 0
200 195 -170 0
-200 195 170 0
200 -195 170 0
-200 -195 -170 0
195 -201 0
200 -201 0
-195 -200 201 0
38 -202 0
11 -202 0
-38 -11 202 0
-201 199 0
-202 199 0
201 202 -199 0
12 39 -203 0
-12 39 203 0
12 -39 203 0
-12 -39 -203 0
203 199 -171 0
-203 199 171 0
203 -199 171 0
-203 -199 -171 0
199 -204 0
203 -204 0
-199 -203 204 0
39 -205 0
12 -205 0
-39 -12 205 0
-204 190 0
-205 190 0
204 205 -190 0
192 -206 0
196 -206 0
200 -206 0
203 -206 0
-192 -196 -200 -203 206 0
205 -207 0
-205 207 0
13 40 -236 0
-13 40 236 0
13 -40 236 0
-13 -40 -236 0
236 83 -226 0
-236 83 226 0
236 -83 226 0
-236 -83 -226 0
83 -237 0
236 -237 0
-83 -236 237 0
40 -238 0
13 -238 0
-40 -13 238 0
-237 235 0
-238 235 0
237 238 -235 0
14 41 -240 0
-14 41 240 0
14 -41 240 0
-14 -41 -240 0
240 235 -227 0
-240 235 227 0
240 -235 227 0
-240 -235 -227 0
235 -241 0
240 -241 0
-235 -240 241 0
41 -242 0
14 -242 0
-41 -14 242 0
-241 239 0
-242 239 0
241 242 -239 0
15 42 -244 0
-15 42 244 0
15 -42 244 0
-15 -42 -244 0
244 239 -228 0
-244 239 228 0
244 -239 228 0
-244 -239 -228 0
239 -245 0
244 -245 0
-239 -244 245 0
42 -246 0
15 -246 0
-42 -15 246 0
-245 243 0
-246 243 0
245 246 -243 0
16 43 -247 0
-16 43 247 0
16 -43 247 0
-16 -43 -247 0
247 243 -229 0
-247 243 229 0
247 -243 229 0
-247 -243 -229 0
243 -248 0
247 -248 0
-243 -247 248 0
43 -249 0
16 -249 0
-43 -16 249 0
-248 234 0
-249 234 0
248 249 -234 0
236 -250 0
240 -250 0
244 -250 0
247 -250 0
-236 -240 -244 -247 250 0
249 -251 0
-249 251 0
13 40 -254 0
-13 40 254 0
13 -40 254 0
-13 -40 -254 0
254 101 -230 0
-254 101 230 0
254 -101 230 0
-254 -101 -230 0
101 -255 0
254 -255 0
-101 -254 255 0
40 -256 0
13 -256 0
-40 -13 256 0
-255 253 0
-256 253 0
255 256 -253 0
14 41 -258 0
-14 41 258 0
14 -41 258 0
-14 -41 -258 0
258 253 -231 0
-258 253 231 0
258 -253 231 0
-258 -253 -231 0
253 -259 0
258 -259 0
-253 -258 259 0
41 -260 0
14 -260 0
-41 -14 260 0
-259 257 0
-260 257 0
259 260 -257 0
15 42 -262 0
-15 42 262 0
15 -42 262 0
-15 -42 -262 0
262 257 -232 0
-262 257 232 0
262 -257 232 0
-262 -257 -232 0
257 -263 0
262 -263 0
-257 -262 263 0
42 -264 0
15 -264 0
-42 -15 264 0
-263 261 0
-264 261 0
263 264 -261 0
16 43 -265 0
-16 43 265 0
16 -43 265 0
-16 -43 -265 0
265 261 -233 0
-265 261 233 0
265 -261 233 0
-265 -261 -233 0
261 -266 0
265 -266 0
-261 -265 266 0
43 -267 0
16 -267 0
-43 -16 267 0
-266 252 0
-267 252 0
266 267 -252 0
254 -268 0
258 -268 0
262 -268 0
265 -268 0
-254 -258 -262 -265 268 0
267 -269 0
-267 269 0
17 44 -298 0
-17 44 298 0
17 -44 298 0
-17 -44 -298 0
298 83 -288 0
-298 83 288 0
298 -83 288 0
-298 -83 -288 0
83 -299 0
298 -299 0
-83 -298 299 0
44 -300 0
17 -300 0
-44 -17 300 0
-299 297 0
-300 297 0
299 300 -297 0
18 45 -302 0
-18 45 302 0
18 -45 302 0
-18 -45 -302 0
302 297 -289 0
-302 297 289 0
302 -297 289 0
-302 -297 -289 0
297 -303 0
302 -303 0
-297 -302 303 0
45 -304 0
18 -304 0
-45 -18 304 0
-303 301 0
-304 301 0
303 304 -301 0
19 46 -306 0
-19 46 306 0
19 -46 306 0
-19 -46 -306 0
306 301 -290 0
-306 301 290 0
306 -301 290 0
-306 -301 -290 0
301 -307 0
306 -307 0
-301 -306 307 0
46 -308 0
19 -308 0
-46 -19 308 0
-307 305 0
-308 305 0
307 308 -305 0
20 47 -309 0
-20 47 309 0
20 -47 309 0
-20 -47 -309 0
309 305 -291 0
-309 305 291 0
309 -305 291 0
-309 -305 -291 0
305 -310 0
309 -310 0
-305 -309 310 0
47 -311 0
20 -311 0
-47 -20 311 0
-310 296 0
-311 296 0
310 311 -296 0
298 -312 0
302 -312 0
306 -312 0
309 -312 0
-298 -302 -306 -309 312 0
311 -313 0
-311 313 0
17 44 -316 0
-17 44 316 0
17 -44 316 0
-17 -44 -316 0
316 101 -292 0
-316 101 292 0
316 -101 292 0
-316 -101 -292 0
101 -317 0
316 -317 0
-101 -316 317 0
44 -318 0
17 -318 0
-44 -17 318 0
-317 315 0
-318 315 0
317 318 -315 0
18 45 -320 0
-18 45 320 0
18 -45 320 0
-18 -45 -320 0
320 315 -293 0
-320 315 293 0
320 -315 293 0
-320 -315 -293 0
315 -321 0
320 -321 0
-315 -320 321 0
45 -322 0
18 -322 0
-45 -18 322 0
-321 319 0
-322 319 0
321 322 -319 0
19 46 -324 0
-19 46 324 0
19 -46 324 0
-19 -46 -324 0
324 319 -294 0
-324 319 294 0
324 -319 294 0
-324 -319 -294 0
319 -325 0
324 -325 0
-319 -324 325 0
46 -326 0
19 -326 0
-46 -19 326 0
-325 323 0
-326 323 0
325 326 -323 0
20 47 -327 0
-20 47 327 0
20 -47 327 0
-20 -47 -327 0
327 323 -295 0
-327 323 295 0
327 -323 295 0
-327 -323 -295 0
323 -328 0
327 -328 0
-323 -327 328 0
47 -329 0
20 -329 0
-47 -20 329 0
-328 314 0
-329 314 0
328 329 -314 0
316 -330 0
320 -330 0
324 -330 0
327 -330 0
-316 -320 -324 -327 330 0
329 -331 0
-329 331 0
21 48 -360 0
-21 48 360 0
21 -48 360 0
-21 -48 -360 0
360 83 -350 0
-360 83 350 0
360 -83 350 0
-360 -83 -350 0
83 -361 0
360 -361 0
-83 -360 361 0
48 -362 0
21 -362 0
-48 -21 362 0
-361 359 0
-362 359 0
361 362 -359 0
22 49 -364 0
-22 49 364 0
22 -49 364 0
-22 -49 -364 0
364 359 -351 0
-364 359 351 0
364 -359 351 0
-364 -359 -351 0
359 -365 0
364 -365 0
-359 -364 365 0
49 -366 0
22 -366 0
-49 -22 366 0
-365 363 0
-366 363 0
365 366 -363 0
23 50 -368 0
-23 50 368 0
23 -50 368 0
-23 -50 -368 0
368 363 -352 0
-368 363 352 0
368 -363 352 0
-368 -363 -352 0
363 -369 0
368 -369 0
-363 -368 369 0
50 -370 0
23 -370 0
-50 -23 370 0
-369 367 0
-370 367 0
369 370 -367 0
24 51 -371 0
-24 51 371 0
24 -51 371 0
-24 -51 -371 0
371 367 -353 0
-371 367 353 0
371 -367 353 0
-371 -367 -353 0
367 -372 0
371 -372 0
-367 -371 372 0
51 -373 0
24 -373 0
-51 -24 373 0
-372 358 0
-373 358 0
372 373 -358 0
360 -374 0
364 -374 0
368 -374 0
371 -374 0
-360 -364 -368 -371 374 0
373 -375 0
-373 375 0
21 48 -378 0
-21 48 378 0
21 -48 378 0
-21 -48 -378 0
378 101 -354 0
-378 101 354 0
378 -101 354 0
-378 -101 -354 0
101 -379 0
378 -379 0
-101 -378 379 0
48 -380 0
21 -380 0
-48 -21 380 0
-379 377 0
-380 377 0
379 380 -377 0
22 49 -382 0
-22 49 382 0
22 -49 382 0
-22 -49 -382 0
382 377 -355 0
-382 377 355 0
382 -377 355 0
-382 -377 -355 0
377 -383 0
382 -383 0
-377 -382 383 0
49 -384 0
22 -384 0
-49 -22 384 0
-383 381 0
-384 381 0
383 384 -381 0
23 50 -386 0
-23 50 386 0
23 -50 386 0
-23 -50 -386 0
386 381 -356 0
-386 381 356 0
386 -381 356 0
-386 -381 -356 0
381 -387 0
386 -387 0
-381 -386 387 0
50 -388 0
23 -388 0
-50 -23 388 0
-387 385 0
-388 385 0
387 388 -385 0
24 51 -389 0
-24 51 389 0
24 -51 389 0
-24 -51 -389 0
389 385 -357 0
-389 385 357 0
389 -385 357 0
-389 -385 -357 0
385 -390 0
389 -390 0
-385 -389 390 0
51 -391 0
24 -391 0
-51 -24 391 0
-390 376 0
-391 376 0
390 391 -376 0
378 -392 0
382 -392 0
386 -392 0
389 -392 0
-378 -382 -386 -389 392 0
391 -393 0
-391 393 0
25 52 -420 0
-25 52 420 0
25 -52 420 0
-25 -52 -420 0
420 83 -412 0
-420 83 412 0
420 -83 412 0
-420 -83 -412 0
83 -421 0
420 -421 0
-83 -420 421 0
52 -422 0
25 -422 0
-52 -25 422 0
-421 419 0
-422 419 0
421 422 -419 0
26 53 -424 0
-26 53 424 0
26 -53 424 0
-26 -53 -424 0
424 419 -413 0
-424 419 413 0
424 -419 413 0
-424 -419 -413 0
419 -425 0
424 -425 0
-419 -424 425 0
53 -426 0
26 -426 0
-53 -26 426 0
-425 423 0
-426 423 0
425 426 -423 0
27 54 -427 0
-27 54 427 0
27 -54 427 0
-27 -54 -427 0
427 423 -414 0
-427 423 414 0
427 -423 414 0
-427 -423 -414 0
423 -428 0
427 -428 0
-423 -427 428 0
54 -429 0
27 -429 0
-54 -27 429 0
-428 418 0
-429 418 0
428 429 -418 0
420 -430 0
424 -430 0
427 -430 0
-420 -424 -427 430 0
429 -431 0
-429 431 0
25 52 -434 0
-25 52 434 0
25 -52 434 0
-25 -52 -434 0
434 101 -415 0
-434 101 415 0
434 -101 415 0
-434 -101 -415 0
101 -435 0
434 -435 0
-101 -434 435 0
52 -436 0
25 -436 0
-52 -25 436 0
-435 433 0
-436 433 0
435 436 -433 0
26 53 -438 0
-26 53 438 0
26 -53 438 0
-26 -53 -438 0
438 433 -416 0
-438 433 416 0
438 -433 416 0
-438 -433 -416 0
433 -439 0
438 -439 0
-433 -438 439 0
53 -440 0
26 -440 0
-53 -26 440 0
-439 437 0
-440 437 0
439 440 -437 0
27 54 -441 0
-27 54 441 0
27 -54 441 0
-27 -54 -441 0
441 437 -417 0
-441 437 417 0
441 -437 417 0
-441 -437 -417 0
437 -442 0
441 -442 0
-437 -441 442 0
54 -443 0
27 -443 0
-54 -27 443 0
-442 432 0
-443 432 0
442 443 -432 0
434 -444 0
438 -444 0
441 -444 0
-434 -438 -441 444 0
443 -445 0
-443 445 0
85 147 0
-85 -147 0
147 -148 0
102 -148 0
-147 -102 148 0
85 -149 0
106 -149 0
-85 -106 149 0
-148 59 0
-149 59 0
148 149 -59 0
85 150 0
-85 -150 0
150 -151 0
103 -151 0
-150 -103 151 0
85 -152 0
107 -152 0
-85 -107 152 0
-151 60 0
-152 60 0
151 152 -60 0
85 153 0
-85 -153 0
153 -154 0
104 -154 0
-153 -104 154 0
85 -155 0
108 -155 0
-85 -108 155 0
-154 61 0
-155 61 0
154 155 -61 0
85 156 0
-85 -156 0
156 -157 0
105 -157 0
-156 -105 157 0
85 -158 0
109 -158 0
-85 -109 158 0
-157 62 0
-158 62 0
157 158 -62 0
85 159 0
-85 -159 0
159 -160 0
110 -160 0
-159 -110 160 0
85 -161 0
128 -161 0
-85 -128 161 0
-160 146 0
-161 146 0
160 161 -146 0
85 -162 0
144 -162 0
-85 -144 162 0
-162 163 0
-146 163 0
162 146 -163 0
163 209 0
-163 -209 0
209 -210 0
164 -210 0
-209 -164 210 0
163 -211 0
168 -211 0
-163 -168 211 0
-210 63 0
-211 63 0
210 211 -63 0
163 212 0
-163 -212 0
212 -213 0
165 -213 0
-212 -165 213 0
163 -214 0
169 -214 0
-163 -169 214 0
-213 64 0
-214 64 0
213 214 -64 0
163 215 0
-163 -215 0
215 -216 0
166 -216 0
-215 -166 216 0
163 -217 0
170 -217 0
-163 -170 217 0
-216 65 0
-217 65 0
216 217 -65 0
163 218 0
-163 -218 0
218 -219 0
167 -219 0
-218 -167 219 0
163 -220 0
171 -220 0
-163 -171 220 0
-219 66 0
-220 66 0
219 220 -66 0
163 221 0
-163 -221 0
221 -222 0
172 -222 0
-221 -172 222 0
163 -223 0
190 -223 0
-163 -190 223 0
-222 208 0
-223 208 0
222 223 -208 0
163 -224 0
206 -224 0
-163 -206 224 0
-224 225 0
-208 225 0
224 208 -225 0
225 271 0
-225 -271 0
271 -272 0
226 -272 0
-271 -226 272 0
225 -273 0
230 -273 0
-225 -230 273 0
-272 67 0
-273 67 0
272 273 -67 0
225 274 0
-225 -274 0
274 -275 0
227 -275 0
-274 -227 275 0
225 -276 0
231 -276 0
-225 -231 276 0
-275 68 0
-276 68 0
275 276 -68 0
225 277 0
-225 -277 0
277 -278 0
228 -278 0
-277 -228 278 0
225 -279 0
232 -279 0
-225 -232 279 0
-278 69 0
-279 69 0
278 279 -69 0
225 280 0
-225 -280 0
280 -281 0
229 -281 0
-280 -229 281 0
225 -282 0
233 -282 0
-225 -233 282 0
-281 70 0
-282 70 0
281 282 -70 0
225 283 0
-225 -283 0
283 -284 0
234 -284 0
-283 -234 284 0
225 -285 0
252 -285 0
-225 -252 285 0
-284 270 0
-285 270 0
284 285 -270 0
225 -286 0
268 -286 0
-225 -268 286 0
-286 287 0
-270 287 0
286 270 -287 0
287 333 0
-287 -333 0
333 -334 0
288 -334 0
-333 -288 334 0
287 -335 0
292 -335 0
-287 -292 335 0
-334 71 0
-335 71 0
334 335 -71 0
287 336 0
-287 -336 0
336 -337 0
289 -337 0
-336 -289 337 0
287 -338 0
293 -338 0
-287 -293 338 0
-337 72 0
-338 72 0
337 338 -72 0
287 339 0
-287 -339 0
339 -340 0
290 -340 0
-339 -290 340 0
287 -341 0
294 -341 0
-287 -294 341 0
-340 73 0
-341 73 0
340 341 -73 0
287 342 0
-287 -342 0
342 -343 0
291 -343 0
-342 -291 343 0
287 -344 0
295 -344 0
-287 -295 344 0
-343 74 0
-344 74 0
343 344 -74 0
287 345 0
-287 -345 0
345 -346 0
296 -346 0
-345 -296 346 0
287 -347 0
314 -347 0
-287 -314 347 0
-346 332 0
-347 332 0
346 347 -332 0
287 -348 0
330 -348 0
-287 -330 348 0
-348 349 0
-332 349 0
348 332 -349 0
349 395 0
-349 -395 0
395 -396 0
350 -396 0
-395 -350 396 0
349 -397 0
354 -397 0
-349 -354 397 0
-396 75 0
-397 75 0
396 397 -75 0
349 398 0
-349 -398 0
398 -399 0
351 -399 0
-398 -351 399 0
349 -400 0
355 -400 0
-349 -355 400 0
-399 76 0
-400 76 0
399 400 -76 0
349 401 0
-349 -401 0
401 -402 0
352 -402 0
-401 -352 402 0
349 -403 0
356 -403 0
-349 -356 403 0
-402 77 0
-403 77 0
402 403 -77 0
349 404 0
-349 -404 0
404 -405 0
353 -405 0
-404 -353 405 0
349 -406 0
357 -406 0
-349 -357 406 0
-405 78 0
-406 78 0
405 406 -78 0
349 407 0
-349 -407 0
407 -408 0
358 -408 0
-407 -358 408 0
349 -409 0
376 -409 0
-349 -376 409 0
-408 394 0
-409 394 0
408 409 -394 0
349 -410 0
392 -410 0
-349 -392 410 0
-410 411 0
-394 411 0
410 394 -411 0
411 447 0
-411 -447 0
447 -448 0
412 -448 0
-447 -412 448 0
411 -449 0
415 -449 0
-411 -415 449 0
-448 79 0
-449 79 0
448 449 -79 0
411 450 0
-411 -450 0
450 -451 0
413 -451 0
-450 -413 451 0
411 -452 0
416 -452 0
-411 -416 452 0
-451 80 0
-452 80 0
451 452 -80 0
411 453 0
-411 -453 0
453 -454 0
414 -454 0
-453 -414 454 0
411 -455 0
417 -455 0
-411 -417 455 0
-454 81 0
-455 81 0
454 455 -81 0
411 456 0
-411 -456 0
456 -457 0
418 -457 0
-456 -418 457 0
411 -458 0
432 -458 0
-411 -432 458 0
-457 446 0
-458 446 0
457 458 -446 0
411 -459 0
444 -459 0
-411 -444 459 0
-459 460 0
-446 460 0
459 446 -460 0
460 -82 0
-460 82 0
